c ---- [ banner ] ------------------------------------------------------------
c
c Kissat SAT Solver
c 
c Copyright (c) 2021-2024 Armin Biere University of Freiburg
c Copyright (c) 2019-2021 Armin Biere Johannes Kepler University Linz
c 
c Version 4.0.1 43f02cf3e992cb44653b35e5cb26f93281552ae0
c gcc (Ubuntu 13.2.0-23ubuntu4) 13.2.0 -W -Wall -O3 -DNDEBUG
c Thu Sep 12 12:27:46 CEST 2024 Linux abryzen9 6.8.0-41-generic x86_64
c
c ---- [ parsing ] -----------------------------------------------------------
c
c opened and reading DIMACS file:
c
c   /data/artifact/AMulet2.0_artifact/exp4/cnf_dc2_64/64_64_U_SP_WT_LF_GenMul_dc2.cnf
c
c parsed 'p cnf 30896 134489' header
c closing input after reading 2687742 bytes (3 MB)
c finished parsing after 0.04 seconds
c
c ---- [ options ] -----------------------------------------------------------
c
c --stable=0                       (different from default '1')
c
c ---- [ solving ] -----------------------------------------------------------
c
c  seconds switched rate     size/glue tier1  binary           remaining
c         MB reductions conflicts size  tier2     irredundant
c          level restarts redundant glue  trail           variables
c
c *  0.04 10 0 0 0  0 0   0   0 0.0 0 0 0 0 0% 12964 121523 30893 100%
c (  0.07 13 0 0 0  0 0   0   0 0.0 0 0 0 0 0% 12964 121523 30893 100%
c .  0.08 13 0 0 0  0 0   0   0 0.0 0 0 0 0 0% 12960 121523 30893 100%
c c  0.18 19 0 0 0  0 0   0   0 0.0 0 0 0 0 0% 19908 107819 27417 89%
c d  0.19 19 0 0 0  0 0   0   0 0.0 0 0 0 0 0% 12956 107819 27417 89%
c =  0.26 19 0 0 0  0 0   0   0 0.0 0 0 0 0 0% 13274 107819 27194 88%
c d  0.27 19 0 0 0  0 0   0   0 0.0 0 0 0 0 0% 12828 107819 27194 88%
c f  0.40 19 0 0 0  0 0   0   0 0.0 0 0 0 0 0% 17842 99925 29996 97%
c e  0.60 28 0 0 0  0 0   0   0 0.0 0 0 0 0 0% 11362 108333 20808 67%
c )  0.60 28 0 0 0  0 0   0   0 0.0 0 0 0 0 0% 11362 108333 20808 67%
c {  0.63 28 0 0 0  0 0   0   0 0.0 0 0 2 6 0% 11362 108333 20808 67%
c -  0.96 28 135 0 1 276 38 1001 670 5.0 35 7 3 10 21% 11447 108327 20808 67%
c -  1.22 30 260 0 2 387 34 2003 1350 5.3 38 7 3 9 20% 11497 108326 20808 67%
c c  1.38 22 241 0 2 412 30 2504 1785 4.8 33 7 3 9 23% 11614 107905 20750 67%
c d  1.39 22 241 0 2 412 30 2504 1769 4.8 33 7 3 9 23% 11498 107905 20750 67%
c u  1.41 22 241 0 2 412 30 2504 1459 4.8 33 7 3 9 23% 11507 107905 20750 67%
c v  1.43 22 241 0 2 412 30 2504 1327 4.8 33 7 3 9 23% 11507 107905 20750 67%
c w  1.45 22 241 0 2 412 30 2504 1325 4.8 33 7 3 9 23% 11507 107905 20750 67%
c x  1.47 26 241 0 2 412 30 2504 1325 4.8 33 7 3 9 23% 11605 107663 20750 67%
c =  1.56 26 241 0 2 412 30 2504 1325 4.8 33 7 3 9 23% 12017 107663 20544 66%
c
c  seconds   switched   rate       size/glue tier1    binary           remaining
c         MB  reductions conflicts       size  tier2      irredundant
c           level restarts    redundant    glue   trail           variables
c
c d  1.57 26 241 0 2 412 30 2504 1321 4.8 33 7 3 9 23% 11602 107663 20544 66%
c t  1.58 26 241 0 2 412 30 2504 1321 4.8 33 7 3 9 23% 11590 107663 20544 66%
c f  1.61 26 241 0 2 412 30 2504 1321 4.8 33 7 3 9 23% 12145 106522 21114 68%
c u  1.69 26 241 0 2 412 30 2504 1276 4.8 33 7 3 9 23% 12151 106522 21114 68%
c v  1.72 26 241 0 2 412 30 2504 1185 4.8 33 7 3 9 23% 12151 106522 21114 68%
c w  1.74 26 241 0 2 412 30 2504 1176 4.8 33 7 3 9 23% 12151 106522 21114 68%
c x  1.75 26 241 0 2 412 30 2504 1176 4.8 33 7 3 9 23% 12151 106165 21114 68%
c =  1.84 26 241 0 2 412 30 2504 1176 4.8 33 7 3 9 23% 12427 106165 20976 68%
c d  1.85 26 241 0 2 412 30 2504 1175 4.8 33 7 3 9 23% 12147 106165 20976 68%
c f  1.89 26 241 0 2 412 30 2504 1175 4.8 33 7 3 9 23% 12183 106111 20994 68%
c -  2.14 26 315 0 3 498 38 3417 1670 4.9 34 7 3 9 23% 12241 106104 20994 68%
c -  2.49 26 366 0 4 634 35 5150 2780 4.7 30 6 3 9 23% 12326 106099 20994 68%
c -  2.86 28 377 0 5 804 34 7150 3842 4.4 27 6 3 9 22% 12431 106091 20994 68%
c d  2.95 28 378 0 5 838 33 7710 4282 4.3 26 6 3 9 23% 12407 106089 20963 68%
c u  3.00 28 378 0 5 838 33 7710 3488 4.3 26 6 3 9 23% 12422 106089 20963 68%
c v  3.03 28 378 0 5 838 33 7710 3312 4.3 26 6 3 9 23% 12422 106089 20963 68%
c w  3.06 28 378 0 5 838 33 7710 3311 4.3 26 6 3 9 23% 12422 106089 20963 68%
c x  3.08 28 378 0 5 838 33 7710 3311 4.3 26 6 3 9 23% 12424 105663 20963 68%
c =  3.20 28 378 0 5 838 33 7710 3311 4.3 26 6 3 9 23% 12816 105663 20767 67%
c d  3.21 28 378 0 5 838 33 7710 3305 4.3 26 6 3 9 23% 12356 105663 20766 67%
c
c  seconds   switched   rate       size/glue tier1    binary           remaining
c         MB  reductions conflicts       size  tier2      irredundant
c           level restarts    redundant    glue   trail           variables
c
c t  3.23 28 378 0 5 838 33 7710 3305 4.3 26 6 3 9 23% 12353 105663 20766 67%
c f  3.27 28 378 0 5 838 33 7710 3305 4.3 26 6 3 9 23% 12517 105410 20850 67%
c u  3.37 28 378 0 5 838 33 7710 3193 4.3 26 6 3 9 23% 12520 105410 20850 67%
c v  3.40 28 378 0 5 838 33 7710 3067 4.3 26 6 3 9 23% 12522 105410 20850 67%
c w  3.42 28 378 0 5 838 33 7710 3060 4.3 26 6 3 9 23% 12522 105410 20850 67%
c x  3.44 28 378 0 5 838 33 7710 3060 4.3 26 6 3 9 23% 12522 105370 20850 67%
c =  3.55 28 378 0 5 838 33 7710 3060 4.3 26 6 3 9 23% 13212 105370 20505 66%
c d  3.56 28 378 0 5 838 33 7710 3049 4.3 26 6 3 9 23% 12431 105370 20505 66%
c t  3.58 28 378 0 5 838 33 7710 3049 4.3 26 6 3 9 23% 12427 105370 20505 66%
c f  3.62 28 378 0 5 838 33 7710 3049 4.3 26 6 3 9 23% 14101 102856 21343 69%
c -  3.88 28 363 0 6 941 32 9386 3698 4.1 25 6 2 9 22% 14186 102852 21343 69%
c o  3.99 28 367 0 6 994 32 10002 4218 4.1 24 6 2 9 22% 14219 102851 21343 69%
c -  4.54 28 368 0 7 1191 33 11835 5049 4.3 26 6 2 9 23% 14295 102849 21343 69%
c s  4.69 28 378 0 7 1225 33 12514 5583 4.3 25 6 2 9 23% 14330 98136 21343 69%
c e  4.82 28 378 0 7 1225 33 12514 5583 4.3 25 6 2 9 23% 13290 98972 20739 67%
c s  4.82 28 378 0 7 1225 33 12514 5583 4.3 25 6 2 9 23% 13298 98442 20739 67%
c e  4.84 28 378 0 7 1225 33 12514 5583 4.3 25 6 2 9 23% 13295 98441 20737 67%
c ^  4.84 28 378 0 7 1225 33 12514 5583 4.3 25 6 2 9 23% 13295 98441 20737 67%
c -  5.21 28 371 0 8 1371 32 14481 6159 4.2 25 6 2 9 23% 13362 98439 20737 67%
c d  5.56 28 368 0 8 1499 33 15794 7209 4.2 25 6 2 9 23% 13051 98439 20531 66%
c
c  seconds   switched    rate        size/glue tier1    binary          remaining
c         MB  reductions   conflicts       size  tier2      irredundant
c           level  restarts     redundant    glue   trail          variables
c
c u  5.60 28 368 0 8 1499 33 15794 6271 4.2 25 6 2 9 23% 13074 98439 20531 66%
c v  5.65 28 368 0 8 1499 33 15794 5361 4.2 25 6 2 9 23% 13077 98439 20531 66%
c w  5.76 28 368 0 8 1499 33 15794 5344 4.2 25 6 2 9 23% 13077 98439 20531 66%
c =  5.92 28 368 0 8 1499 33 15794 5344 4.2 25 6 2 9 23% 13935 98439 20102 65%
c d  5.94 28 368 0 8 1499 33 15794 5310 4.2 25 6 2 9 23% 12883 98439 20099 65%
c t  5.96 28 368 0 8 1499 33 15794 5310 4.2 25 6 2 9 23% 12811 98439 20099 65%
c f  6.02 28 368 0 8 1499 33 15794 5310 4.2 25 6 2 9 23% 12905 98228 20149 65%
c u  6.07 28 368 0 8 1499 33 15794 5128 4.2 25 6 2 9 23% 12910 98228 20149 65%
c v  6.11 28 368 0 8 1499 33 15794 5024 4.2 25 6 2 9 23% 12910 98228 20149 65%
c w  6.19 28 368 0 8 1499 33 15794 5015 4.2 25 6 2 9 23% 12910 98228 20149 65%
c x  6.22 28 368 0 8 1499 33 15794 5015 4.2 25 6 2 9 23% 12910 98097 20149 65%
c =  6.41 28 368 0 8 1499 33 15794 5015 4.2 25 6 2 9 23% 13492 98095 19858 64%
c d  6.42 28 368 0 8 1499 33 15794 4968 4.2 25 6 2 9 23% 12720 98095 19858 64%
c t  6.44 28 368 0 8 1499 33 15794 4968 4.2 25 6 2 9 23% 12712 98095 19858 64%
c f  6.49 28 368 0 8 1499 33 15794 4968 4.2 25 6 2 9 23% 12818 97875 19914 64%
c -  6.87 28 358 0 9 1640 32 17309 5504 4.2 25 6 2 8 24% 12875 97872 19914 64%
c o  7.43 28 356 0 9 1866 32 20004 7845 4.1 25 6 2 8 23% 12986 97860 19914 64%
c -  7.52 28 353 0 10 1904 32 20309 7325 4.2 25 6 2 8 23% 12996 97859 19914 64%
c -  8.37 28 341 0 11 2368 32 23471 8937 4.5 28 6 2 7 24% 13106 97849 19914 64%
c s  8.63 28 341 0 11 2539 33 25019 10277 4.5 29 6 2 7 24% 13158 95552 19914 64%
c
c  seconds   switched     rate         size/glue tier1    binary          remaining
c         MB   reductions   conflicts        size  tier2      irredundant
c           level   restarts      redundant    glue   trail          variables
c
c e  8.71 28 341 0 11 2539 33 25019 10277 4.5 29 6 2 7 24% 11054 98470 18715 61%
c 2  8.71 28 341 0 11 2539 33 25019 10277 4.5 29 6 2 7 24% 11052 98470 18715 61%
c s  8.72 28 341 0 11 2539 33 25019 10277 4.5 29 6 2 7 24% 11077 97886 18715 61%
c e  8.73 28 341 0 11 2539 33 25019 10277 4.5 29 6 2 7 24% 11055 97912 18708 61%
c ^  8.73 28 341 0 11 2539 33 25019 10277 4.5 29 6 2 7 24% 11055 97912 18708 61%
c -  8.96 28 341 0 12 2673 33 26788 9460 4.5 28 6 2 7 24% 11131 97911 18708 61%
c c  9.07 28 340 0 12 2702 33 26924 9582 4.6 29 6 2 7 24% 11186 97658 18665 60%
c d  9.08 28 340 0 12 2702 33 26924 9547 4.6 29 6 2 7 24% 10814 97658 18495 60%
c u  9.11 28 340 0 12 2702 33 26924 8253 4.6 29 6 2 7 24% 10842 97658 18495 60%
c v  9.14 28 340 0 12 2702 33 26924 7310 4.6 29 6 2 7 24% 10843 97658 18495 60%
c w  9.18 28 340 0 12 2702 33 26924 7301 4.6 29 6 2 7 24% 10843 97658 18495 60%
c x  9.24 28 340 0 12 2702 33 26924 7301 4.6 29 6 2 7 24% 10886 95948 18495 60%
c =  9.46 28 340 0 12 2702 33 26924 7301 4.6 29 6 2 7 24% 13458 95948 17209 56%
c d  9.47 28 340 0 12 2702 33 26924 7086 4.6 29 6 2 7 24% 10795 95948 17209 56%
c t  9.48 28 340 0 12 2702 33 26924 7086 4.6 29 6 2 7 24% 10692 95948 17209 56%
c f  9.53 28 340 0 12 2702 33 26924 7086 4.6 29 6 2 7 24% 10706 95810 17237 56%
c u  9.56 28 340 0 12 2702 33 26924 6617 4.6 29 6 2 7 24% 10717 95810 17237 56%
c v  9.58 28 340 0 12 2702 33 26924 6488 4.6 29 6 2 7 24% 10717 95810 17237 56%
c w  9.61 28 340 0 12 2702 33 26924 6484 4.6 29 6 2 7 24% 10717 95810 17237 56%
c x  9.69 28 340 0 12 2702 33 26924 6484 4.6 29 6 2 7 24% 10777 90492 17237 56%
c
c  seconds   switched     rate        size/glue tier1    binary          remaining
c         MB   reductions   conflicts       size  tier2      irredundant
c           level   restarts     redundant    glue   trail          variables
c
c =  9.91 28 340 0 12 2702 33 26924 6484 4.6 29 6 2 7 24% 14837 90492 15207 49%
c d  9.92 28 340 0 12 2702 33 26924 6299 4.6 29 6 2 7 24% 10654 90492 15207 49%
c t  9.93 28 340 0 12 2702 33 26924 6299 4.6 29 6 2 7 24% 10546 90492 15207 49%
c f  9.97 28 340 0 12 2702 33 26924 6299 4.6 29 6 2 7 24% 10554 90447 15218 49%
c - 10.24 28 335 0 13 2915 32 30254 8195 4.4 28 6 2 7 24% 10615 90444 15218 49%
c - 10.71 28 318 0 14 3242 31 33859 10337 4.4 28 6 2 7 24% 10676 90440 15218 49%
c - 11.05 28 302 0 15 3486 30 37600 12104 4.3 27 6 2 6 23% 10756 90440 15218 49%
c o 11.30 28 297 0 15 3682 30 40006 14165 4.2 26 6 2 6 23% 10819 90436 15218 49%
c c 11.54 28 292 0 15 3840 30 41251 15189 4.1 26 6 2 6 23% 10937 89885 15123 49%
c d 11.55 28 292 0 15 3840 30 41251 14881 4.1 26 6 2 6 23% 10747 89885 15123 49%
c u 11.59 28 292 0 15 3840 30 41251 12219 4.1 26 6 2 6 23% 10771 89885 15123 49%
c v 11.63 28 292 0 15 3840 30 41251 11563 4.1 26 6 2 6 23% 10771 89885 15123 49%
c w 11.66 28 292 0 15 3840 30 41251 11563 4.1 26 6 2 6 23% 10771 89885 15123 49%
c x 11.70 28 292 0 15 3840 30 41251 11560 4.1 26 6 2 6 23% 10775 82299 15123 49%
c = 11.86 28 292 0 15 3840 30 41251 11560 4.1 26 6 2 6 23% 12117 82299 14452 47%
c d 11.87 28 292 0 15 3840 30 41251 11019 4.1 26 6 2 6 23% 10716 82299 14446 47%
c t 11.88 28 292 0 15 3840 30 41251 11019 4.1 26 6 2 6 23% 10627 82299 14446 47%
c f 11.89 28 292 0 15 3840 30 41251 11019 4.1 26 6 2 6 23% 10636 82250 14458 47%
c c 11.94 28 292 0 15 3840 30 41251 11009 4.1 26 6 2 6 23% 10640 82234 14456 47%
c d 11.94 28 292 0 15 3840 30 41251 11009 4.1 26 6 2 6 23% 10636 82234 14456 47%
c
c  seconds   switched     rate         size/glue tier1    binary          remaining
c         MB   reductions   conflicts        size  tier2      irredundant
c           level   restarts      redundant    glue   trail          variables
c
c u 11.97 28 292 0 15 3840 30 41251 10201 4.1 26 6 2 6 23% 10645 82234 14456 47%
c v 12.01 28 292 0 15 3840 30 41251 9483 4.1 26 6 2 6 23% 10649 82234 14456 47%
c w 12.06 28 292 0 15 3840 30 41251 9483 4.1 26 6 2 6 23% 10649 82234 14456 47%
c x 12.10 28 292 0 15 3840 30 41251 9482 4.1 26 6 2 6 23% 10654 73232 14456 47%
c = 12.25 28 292 0 15 3840 30 41251 9482 4.1 26 6 2 6 23% 10658 73232 14454 47%
c d 12.25 28 292 0 15 3840 30 41251 9472 4.1 26 6 2 6 23% 10645 73232 14450 47%
c - 12.31 28 291 0 16 3858 30 41473 8546 4.2 26 6 2 6 23% 10649 73232 14450 47%
c - 12.84 28 283 0 17 4318 29 45473 10708 4.0 26 6 2 6 23% 10694 73230 14450 47%
c - 13.25 28 278 0 18 4656 28 49596 12798 4.0 26 7 2 6 23% 10767 73228 14450 47%
c s 13.51 28 273 0 18 4848 28 52129 15064 3.9 25 7 2 6 23% 10801 69038 14450 47%
c e 13.58 28 273 0 18 4848 28 52129 15064 3.9 25 7 2 6 23% 9993 70263 14064 46%
c s 13.58 28 273 0 18 4848 28 52129 15064 3.9 25 7 2 6 23% 10016 69981 14064 46%
c e 13.58 28 273 0 18 4848 28 52129 15064 3.9 25 7 2 6 23% 10007 69993 14057 45%
c ^ 13.58 28 273 0 18 4848 28 52129 15064 3.9 25 7 2 6 23% 10007 69993 14057 45%
c - 13.93 28 268 0 19 5101 28 53838 13679 3.9 26 7 2 6 23% 10013 69993 14057 45%
c - 14.40 28 260 0 20 5505 28 58196 15547 3.9 26 7 2 6 23% 10087 69991 14057 45%
c d 14.53 28 258 0 20 5644 28 58895 16128 3.9 26 7 2 6 23% 10046 69991 14032 45%
c u 14.58 28 258 0 20 5644 28 58895 13522 3.9 26 7 2 6 23% 10083 69991 14032 45%
c v 14.63 28 258 0 20 5644 28 58895 12224 3.9 26 7 2 6 23% 10087 69991 14032 45%
c w 14.67 28 258 0 20 5644 28 58895 12219 3.9 26 7 2 6 23% 10087 69991 14032 45%
c
c  seconds   switched     rate         size/glue tier1    binary          remaining
c         MB   reductions   conflicts        size  tier2      irredundant
c           level   restarts      redundant    glue   trail          variables
c
c x 14.72 28 258 0 20 5644 28 58895 12218 3.9 26 7 2 6 23% 10101 69746 14032 45%
c = 14.94 28 258 0 20 5644 28 58895 12218 3.9 26 7 2 6 23% 10243 69746 13961 45%
c d 14.95 28 258 0 20 5644 28 58895 12089 3.9 26 7 2 6 23% 10063 69746 13955 45%
c t 14.96 28 258 0 20 5644 28 58895 12089 3.9 26 7 2 6 23% 10027 69746 13955 45%
c f 14.98 28 258 0 20 5644 28 58895 12089 3.9 26 7 2 6 23% 10042 69627 13973 45%
c c 15.01 28 258 0 20 5644 28 58895 12044 3.9 26 7 2 6 23% 10082 69460 13952 45%
c d 15.02 28 258 0 20 5644 28 58895 12044 3.9 26 7 2 6 23% 10040 69460 13952 45%
c u 15.05 28 258 0 20 5644 28 58895 11443 3.9 26 7 2 6 23% 10048 69460 13952 45%
c v 15.09 28 258 0 20 5644 28 58895 11190 3.9 26 7 2 6 23% 10049 69460 13952 45%
c w 15.15 28 258 0 20 5644 28 58895 11164 3.9 26 7 2 6 23% 10049 69460 13952 45%
c x 15.20 28 258 0 20 5644 28 58895 11161 3.9 26 7 2 6 23% 10070 68474 13952 45%
c = 15.42 28 258 0 20 5644 28 58895 11161 3.9 26 7 2 6 23% 10288 68474 13843 45%
c d 15.43 28 258 0 20 5644 28 58895 10947 3.9 26 7 2 6 23% 10046 68474 13841 45%
c t 15.44 28 258 0 20 5644 28 58895 10947 3.9 26 7 2 6 23% 10017 68474 13841 45%
c f 15.45 28 258 0 20 5644 28 58895 10947 3.9 26 7 2 6 23% 10019 68461 13843 45%
c - 16.04 28 253 0 21 6202 28 62668 11352 3.8 26 7 1 6 24% 10070 68461 13843 45%
c - 16.68 28 249 0 22 6707 28 67250 13134 3.8 27 7 1 5 24% 10107 68457 13843 45%
c o 17.06 28 244 0 22 7027 28 70251 15672 3.8 27 7 1 5 24% 10168 68455 13843 45%
c - 17.44 28 241 0 23 7355 28 71941 14506 3.8 27 7 1 5 25% 10174 68454 13843 45%
c - 17.82 28 239 0 24 7670 27 76736 15380 3.7 27 7 1 5 24% 10273 68451 13843 45%
c
c  seconds   switched     rate         size/glue tier1    binary          remaining
c         MB   reductions   conflicts        size  tier2      irredundant
c           level   restarts      redundant    glue   trail          variables
c
c c 18.44 28 234 0 24 8100 27 79987 18466 3.8 27 7 1 5 24% 10364 67857 13734 44%
c d 18.44 28 234 0 24 8100 27 79987 18006 3.8 27 7 1 5 24% 10146 67857 13734 44%
c u 18.48 28 234 0 24 8100 27 79987 16022 3.8 27 7 1 5 24% 10179 67857 13734 44%
c v 18.53 28 234 0 24 8100 27 79987 13632 3.8 27 7 1 5 24% 10198 67857 13734 44%
c w 18.65 28 234 0 24 8100 27 79987 13619 3.8 27 7 1 5 24% 10198 67857 13734 44%
c x 18.72 28 234 0 24 8100 27 79987 13609 3.8 27 7 1 5 24% 10208 66802 13734 44%
c = 19.09 28 234 0 24 8100 27 79987 13609 3.8 27 7 1 5 24% 10778 66795 13449 44%
c d 19.09 28 234 0 24 8100 27 79987 13262 3.8 27 7 1 5 24% 10124 66795 13449 44%
c t 19.10 28 234 0 24 8100 27 79987 13262 3.8 27 7 1 5 24% 10031 66795 13449 44%
c f 19.12 28 234 0 24 8100 27 79987 13262 3.8 27 7 1 5 24% 10047 66692 13463 44%
c u 19.18 28 234 0 24 8100 27 79987 12624 3.8 27 7 1 5 24% 10053 66692 13463 44%
c v 19.21 28 234 0 24 8100 27 79987 12153 3.8 27 7 1 5 24% 10053 66692 13463 44%
c w 19.34 28 234 0 24 8100 27 79987 12010 3.8 27 7 1 5 24% 10053 66692 13463 44%
c x 19.40 28 234 0 24 8100 27 79987 12006 3.8 27 7 1 5 24% 10091 66091 13463 44%
c t 19.74 28 234 0 24 8100 27 79987 12006 3.8 27 7 1 5 24% 10076 66091 13463 44%
c - 19.89 28 232 0 25 8203 27 81635 11354 3.8 27 7 1 5 24% 10087 66090 13463 44%
c i 20.56 28 226 0 25 8775 27 86279 15589 3.8 27 7 1 5 25% 10165 66086 13462 44%
c - 20.63 28 226 0 26 8829 27 86636 13825 3.8 27 7 1 5 25% 10164 66086 13462 44%
c i 20.70 28 226 0 26 8878 27 87382 14489 3.7 27 7 1 5 25% 10180 66085 13461 44%
c i 21.04 28 224 0 26 9152 27 89107 16124 3.8 28 7 1 5 25% 10192 66084 13460 44%
c
c  seconds   switched     rate         size/glue tier1    binary          remaining
c         MB   reductions   conflicts        size  tier2      irredundant
c           level   restarts      redundant    glue   trail          variables
c
c i 21.18 28 224 0 26 9266 27 89766 16744 3.8 28 7 1 5 25% 10199 66084 13459 44%
c i 21.28 28 224 0 26 9346 27 90336 17233 3.8 28 7 1 5 25% 10216 66084 13458 44%
c - 21.36 28 225 0 27 9404 27 91735 15783 3.7 28 7 1 5 25% 10233 66084 13458 44%
c i 21.39 28 225 0 27 9434 27 91937 15956 3.8 28 7 1 5 25% 10238 66083 13456 44%
c i 21.58 28 223 0 27 9623 27 93213 17104 3.8 28 7 1 5 25% 10255 66081 13455 44%
c i 21.91 28 220 0 27 9907 27 94840 18633 3.8 28 7 1 5 25% 10265 66081 13453 44%
c i 21.94 28 221 0 27 9924 27 95211 18930 3.8 28 7 1 5 25% 10278 66081 13452 44%
c i 21.95 28 221 0 27 9924 27 95283 18977 3.8 28 7 1 5 25% 10281 66081 13448 44%
c i 21.99 28 220 0 27 9951 27 95844 19493 3.8 28 7 1 5 25% 10284 66081 13447 44%
c s 21.99 28 220 0 27 9954 27 95852 19501 3.8 28 7 1 5 25% 10283 65150 13447 44%
c e 22.07 28 220 0 27 9954 27 95852 19501 3.8 28 7 1 5 25% 6687 73702 11675 38%
c 2 22.07 28 220 0 27 9954 27 95852 19501 3.8 28 7 1 5 25% 6672 73702 11675 38%
c s 22.09 28 220 0 27 9954 27 95852 19501 3.8 28 7 1 5 25% 6698 73227 11675 38%
c e 22.10 28 220 0 27 9954 27 95852 19501 3.8 28 7 1 5 25% 6651 73357 11637 38%
c ^ 22.10 28 220 0 27 9954 27 95852 19501 3.8 28 7 1 5 25% 6651 73357 11637 38%
c - 22.26 28 219 0 28 10080 27 96933 12495 3.7 28 8 1 5 25% 6658 73357 11637 38%
c i 22.62 28 215 0 28 10351 26 99442 14872 3.7 28 8 1 5 26% 6670 73356 11636 38%
c i 22.62 28 215 0 28 10351 26 99601 14978 3.7 28 8 1 5 26% 6678 73356 11632 38%
c i 22.66 28 215 0 28 10385 26 100012 15351 3.7 28 8 1 5 25% 6679 73356 11631 38%
c i 22.95 28 213 0 28 10602 26 101128 16399 3.7 29 8 1 5 26% 6686 73356 11630 38%
c
c  seconds   switched      rate          size/glue tier1    binary         remaining
c         MB   reductions    conflicts         size  tier2     irredundant
c           level   restarts        redundant    glue   trail         variables
c
c i 22.95 28 213 0 28 10604 26 101134 16401 3.7 29 8 1 5 26% 6687 73356 11629 38%
c i 23.02 28 213 0 28 10668 26 101562 16800 3.7 29 8 1 5 26% 6693 73356 11628 38%
c - 23.10 28 212 0 29 10723 26 102225 14606 3.7 29 8 1 5 26% 6676 73356 11628 38%
c i 23.38 28 209 0 29 10950 26 104292 16569 3.7 29 8 1 5 26% 6683 73356 11627 38%
c d 23.46 28 208 0 29 10986 26 104650 16857 3.7 29 8 1 5 26% 6707 73273 11625 38%
c d 23.47 28 208 0 29 10986 26 104650 16849 3.7 29 8 1 5 26% 6681 73273 11612 38%
c u 23.50 28 208 0 29 10986 26 104650 15253 3.7 29 8 1 5 26% 6703 73273 11611 38%
c v 23.55 28 208 0 29 10986 26 104650 12909 3.7 29 8 1 5 26% 6708 73273 11611 38%
c w 23.69 28 208 0 29 10986 26 104650 12832 3.7 29 8 1 5 26% 6708 73273 11611 38%
c x 23.77 29 208 0 29 10986 26 104650 12809 3.7 29 8 1 5 26% 6729 72488 11611 38%
c d 23.77 29 208 0 29 10986 26 104650 12797 3.7 29 8 1 5 26% 6723 72488 11608 38%
c t 23.78 29 208 0 29 10986 26 104650 12797 3.7 29 8 1 5 26% 6634 72488 11607 38%
c f 23.83 29 208 0 29 10986 26 104650 12797 3.7 29 8 1 5 26% 6637 72448 11611 38%
c c 23.86 29 208 0 29 10986 26 104650 12795 3.7 29 8 1 5 26% 6630 72434 11609 38%
c d 23.86 29 208 0 29 10986 26 104650 12795 3.7 29 8 1 5 26% 6627 72433 11609 38%
c u 23.89 29 208 0 29 10986 26 104650 12300 3.7 29 8 1 5 26% 6633 72433 11609 38%
c v 23.92 29 208 0 29 10986 26 104650 11823 3.7 29 8 1 5 26% 6635 72433 11609 38%
c w 24.09 29 208 0 29 10986 26 104650 11491 3.7 29 8 1 5 26% 6636 72433 11609 38%
c x 24.18 29 208 0 29 10986 26 104650 11485 3.7 29 8 1 5 26% 6674 71949 11609 38%
c = 24.62 29 208 0 29 10986 26 104650 11485 3.7 29 8 1 5 26% 6703 71909 11589 38%
c
c  seconds   switched      rate          size/glue tier1    binary         remaining
c         MB   reductions    conflicts         size  tier2     irredundant
c           level   restarts        redundant    glue   trail         variables
c
c d 24.62 29 208 0 29 10986 26 104650 11440 3.7 29 8 1 5 26% 6666 71909 11587 38%
c t 24.63 29 208 0 29 10986 26 104650 11440 3.7 29 8 1 5 26% 6624 71909 11587 38%
c i 24.64 29 208 0 29 10986 26 104650 11440 3.7 29 8 1 5 26% 6624 71909 11587 38%
c i 24.98 29 205 0 29 11238 26 107065 13729 3.6 28 8 1 5 26% 6637 71909 11585 37%
c - 25.07 29 204 0 30 11314 26 107610 11839 3.6 28 8 1 5 26% 6626 71908 11585 37%
c i 25.12 29 204 0 30 11350 26 107939 12138 3.6 28 8 1 5 26% 6630 71908 11583 37%
c i 25.25 29 202 0 30 11433 25 109353 13460 3.6 28 8 1 5 26% 6633 71907 11582 37%
c o 25.32 29 200 0 30 11473 25 110251 14280 3.6 28 8 1 5 26% 6646 71906 11582 37%
c i 25.33 29 200 0 30 11486 25 110390 14385 3.6 28 8 1 5 26% 6656 71906 11581 37%
c i 25.38 29 197 0 30 11522 25 111502 15347 3.5 28 8 1 5 26% 6678 71906 11578 37%
c i 25.48 29 196 0 30 11585 25 112219 16029 3.5 27 8 1 5 26% 6679 71906 11577 37%
c i 25.58 29 195 0 30 11647 25 113033 16768 3.5 27 8 1 5 26% 6689 71906 11576 37%
c - 25.58 29 195 0 31 11647 25 113087 13968 3.5 27 8 1 5 26% 6661 71906 11576 37%
c i 25.63 29 195 0 31 11677 25 113529 14364 3.5 27 8 1 5 26% 6667 71906 11575 37%
c i 25.68 29 193 0 31 11709 24 114219 14993 3.5 27 8 1 5 26% 6675 71906 11574 37%
c i 25.68 29 193 0 31 11710 24 114361 15098 3.5 27 8 1 5 26% 6683 71906 11573 37%
c i 25.72 29 190 0 31 11733 24 115849 16394 3.4 27 8 1 5 26% 6694 71906 11572 37%
c i 25.73 29 190 0 31 11739 24 115942 16464 3.4 27 8 1 5 26% 6694 71906 11571 37%
c i 25.74 29 188 0 31 11743 24 116609 16987 3.4 27 8 1 5 25% 6707 71904 11550 37%
c } 25.74 29 188 0 31 11743 24 116616 16987 3.4 27 8 1 5 25% 6710 71904 11498 37%
c
c  seconds   switched      rate          size/glue tier1    binary         remaining
c         MB   reductions    conflicts         size  tier2     irredundant
c           level   restarts        redundant    glue   trail         variables
c
c 0 25.74 29 188 0 31 11743 24 116616 16987 3.4 27 8 1 5 25% 6710 71904 11498 37%
c
c ---- [ result ] ------------------------------------------------------------
c
s UNSATISFIABLE
c
c ---- [ profiling ] ---------------------------------------------------------
c
c          17.21   66.87 %  search
c          17.21   66.87 %  focused
c           7.90   30.69 %  simplify
c           7.72   29.99 %  probe
c           3.13   12.15 %  sweep
c           2.83   11.00 %  vivify
c           0.62    2.43 %  factor
c           0.55    2.12 %  congruence
c           0.54    2.08 %  preprocess
c           0.51    1.97 %  eliminate
c           0.43    1.65 %  substitute
c           0.20    0.78 %  fastel
c           0.15    0.58 %  reduce
c           0.11    0.42 %  transitive
c           0.10    0.37 %  subsume
c           0.06    0.22 %  lucky
c           0.05    0.21 %  backbone
c           0.04    0.14 %  parse
c =============================================
c          25.74  100.00 %  total
c
c ---- [ statistics ] --------------------------------------------------------
c
c chronological:                         5392                5 %  conflicts
c conflicts:                           116616             4531.00 per second
c congruent:                             3806               12 %  variables
c decisions:                          2811969               24.11 per conflict
c eliminated:                           13203               43 %  variables
c factored:                              4507               15 %  variables
c fast_eliminated:                       9188               70 %  eliminated
c fast_strengthened:                       27                2 %  per strengthened
c fast_subsumed:                           67                0 %  per subsumed
c iterations:                              32                0 %  variables
c propagations:                     114024911          4430324    per second
c reductions:                              31             3762    interval
c reordered:                                5            23323    interval
c restarts:                             11743               10    interval
c strengthened:                          1217                0 %  checks
c substituted:                          10576               34 %  variables
c subsumed:                             13881                1 %  checks
c switched:                                 0                0    interval
c vivified:                             66108               12 %  checks
c
c ---- [ glue usage ] --------------------------------------------------------
c
c focused glue 1 used 159921 clauses 57.35% accumulated 57.35% tier1
c focused glue 2 used  56044 clauses 20.10% accumulated 77.45%
c focused glue 3 used  18248 clauses  6.54% accumulated 84.00%
c focused glue 4 used  11438 clauses  4.10% accumulated 88.10%
c focused glue 5 used   7553 clauses  2.71% accumulated 90.81% tier2
c
c ---- [ resources ] ---------------------------------------------------------
c
c maximum-resident-set-size:         30982144 bytes         30 MB
c process-time:                            26s              25.74 seconds
c
c ---- [ shutting down ] -----------------------------------------------------
c
c exit 20
